n_res = 5;
rcap = [16, 20, 93, 107, 93];
rtype = [1, 1, 2, 2, 2];
n_tasks = 16;
modes = [ {1, 2, 3}, {4, 5, 6}, {7, 8, 9}, {10, 11, 12}, {13, 14, 15}, {16, 17, 18}, {19, 20, 21}, {22, 23, 24}, {25, 26, 27}, {28, 29, 30}, {31, 32, 33}, {34, 35, 36}, {37, 38, 39}, {40, 41, 42}, {43, 44, 45}, {46, 47, 48} ];
succ = [ {11, 14, 16}, {4, 9, 12}, {4, 5, 12}, {6, 10, 11}, {8, 10, 15}, {7}, {8, 16}, {13}, {10, 11, 14}, {16}, {15}, {13, 15}, {14}, {}, {}, {} ];
n_opt = 48;
dur = [2, 7, 8, 2, 6, 9, 3, 4, 10, 1, 8, 8, 2, 2, 9, 3, 6, 9, 1, 6, 7, 4, 8, 8, 2, 2, 8, 2, 2, 4, 2, 5, 7, 5, 7, 9, 1, 3, 7, 3, 3, 5, 6, 6, 7, 6, 8, 9];
rreq = [|  8,  4,  3,  7,  5,  3,  8,  7,  3,  4,  4,  4,  5,  5,  5,  2,  2,  1,  7,  6,  1,  9,  4,  3,  2,  3,  2, 10,  9,  8,  7,  6,  4,  5,  5,  3,  7,  5,  4, 10, 10,  8,  9,  8,  4,  2,  2,  2
        |  7,  6,  5,  8,  8,  6,  5,  4,  4,  9,  6,  5,  4,  4,  4,  7,  7,  4,  8,  7,  4, 10,  9,  9,  4,  6,  3,  6,  5,  4, 10,  9,  9,  8,  5,  4,  9,  9,  9,  6,  5,  4,  8,  6,  2,  8,  8,  7
        |  7,  6,  3,  5,  5,  3,  3,  2,  2,  9,  2,  1,  3,  5,  1,  5,  3,  3,  9,  5,  2,  5,  2,  4,  5,  5,  2,  7,  7,  6,  5,  5,  5,  8,  5,  4,  8,  5,  3, 10,  8,  4,  7,  6,  5,  8,  8,  6
        |  8,  6,  4,  6,  5,  5,  8,  8,  4,  7,  4,  3,  4,  4,  3,  7,  6,  5,  8,  8,  7,  7,  4,  5, 10,  9,  9,  6,  5,  5,  8,  7,  5,  9,  9,  8,  7,  7,  7,  6,  7,  4,  7,  8,  3,  6,  5,  5
        |  6,  5,  5,  8,  6,  5,  6,  4,  4,  8,  2,  5,  7,  5,  5,  4,  3,  2,  6,  5,  3,  6,  4,  2,  9,  9,  9,  7,  9,  5,  4,  4,  4,  7,  6,  6,  7,  6,  6,  5,  4,  4,  6,  6,  2,  4,  4,  3 |];
